3 4 2
0.15

100.0 90.0 80.0 80.0

10.0 10.0 10.0 10.0
10.0 10.0 10.0 10.0

38 27 50

12 8 14 5
9 11 10 8
20 18 24 14

1.0 1.0
2.0 2.0
3.0 3.0

1.0
1.0
1.0

3.0 2.0 1.0 0.0
2.0 3.0 1.0 0.0
0.0 2.0 3.0 2.0

2
1 2 4
3 2 1

